511, 0, 0, 60, 0
512, 0, 1, 32, 3
513, 0, 2, 67, 1
514, 0, 3, 38, 2
515, 1, 0, 79, 1
516, 1, 1, 45, 0
517, 1, 2, 33, 2
518, 1, 3, 81, 3
519, 2, 0, 71, 3
520, 2, 1, 34, 2
521, 2, 2, 85, 0
522, 2, 3, 59, 1
523, 3, 0, 55, 2
524, 3, 1, 51, 0
525, 3, 2, 62, 1
526, 3, 3, 39, 3
